NAME : tsp40_10.199.tour
COMMENT : Length = 199
COMMENT : Found by LKH [Keld Helsgaun]
TYPE : TOUR
DIMENSION : 40
TOUR_SECTION
1
11
22
28
16
31
9
24
6
40
25
33
26
12
15
2
8
10
23
30
5
14
29
39
4
13
3
38
32
7
36
35
20
18
27
19
21
17
34
37
-1
EOF
